c This is an instance of the exact track of PACE 2020 Challenge, see https://pacechallenge.org/2020/ 
c TYPE: generated 
c ORIGIN: Python networkx package 
c DESCRIPTION: A cycle graph on p nodes with chords joining each vertex x to its inverse modulo p. This graph is a (mildly explicit) 3-regular expander. Generated using chordal_cycle_graph function from Python’s networkx package 
p tdp 113 168
1 2
1 3
2 87
3 4
4 5
4 6
5 7
5 8
6 86
6 88
7 9
7 10
8 64
8 56
9 11
9 12
10 102
10 76
11 13
11 14
12 52
12 96
13 15
13 16
14 35
14 36
15 17
15 18
16 112
16 32
17 19
17 20
18 32
18 50
19 21
19 22
20 28
20 109
21 23
21 24
22 46
22 62
23 25
23 26
24 98
24 79
25 27
25 28
26 68
26 52
27 29
27 30
28 76
29 31
29 32
30 48
30 34
31 33
31 34
33 35
33 36
34 113
35 37
36 38
37 70
37 72
38 39
38 40
39 41
39 42
40 96
40 98
41 43
41 44
42 62
42 64
43 45
43 46
44 88
44 90
45 47
45 48
46 59
47 49
47 50
48 108
49 51
49 52
50 78
51 53
51 54
53 55
53 56
54 74
54 103
55 57
55 58
56 66
57 59
57 60
58 77
58 80
59 61
60 91
60 93
61 82
61 84
62 63
63 67
63 70
64 65
65 84
65 86
66 67
66 68
67 69
68 94
69 78
69 108
70 71
71 105
71 110
72 73
72 74
73 75
73 76
74 113
75 77
75 78
77 79
79 100
80 81
80 82
81 82
81 83
83 92
83 95
84 85
85 109
85 105
86 87
87 103
88 89
89 101
89 104
90 91
90 92
91 93
92 107
93 94
94 95
95 102
96 97
97 111
97 112
98 99
99 104
99 106
100 101
100 102
101 103
104 105
106 107
106 108
107 109
110 111
110 112
111 113
